57
26
0 30 31 32 35 37 40 41 42 43 44 45 46 47 48 50 55
1 29 30 31 32 37 40 41 42 44 51 53 55 56
2 26 28 30 34 35 37 41 42 44 48 49 53 55
3 26 27 28 29 30 31 34 35 37 38 40 41 42 44 45 48 53 55
4 26 29 30 31 32 34 39 40 41 42 43 46 49 50 51 52 53 55 56
5 26 27 28 30 31 37 39 40 41 42 43 44 45 46 48 52 55 56
6 26 27 30 31 36 39 43 46 48 53
7 26 27 28 30 32 34 37 40 41 42 46 50 55
8 27 29 31 32 33 35 37 41 42 44 45 48 49 52 53 55
9 26 27 28 30 31 32 35 37 40 41 42 43 46 48 49 51 52 53 54 55
10 26 27 32 39 40 41 42 43 45 46 50 55 56
11 27 29 32 34 37 40 42 44 46 48 50 55
12 26 27 28 31 32 33 35 39 42 44 46 48 49 56
13 26 27 28 30 35 37 39 44 48 50 52 55 56
14 31 32 35 44 48 50 53
15 28 31 35 37 41 42 43 45 46 50 52 53 56
16 37 49 52 53
17 34 37 47 48 51 54 56
18 29 30 31 32 41 44 45 50
19 27 28 29 32 34 44 45 51 55
20 31 35 38 41 43 49
21 30 31 47 51 56
22 35 46 50 52
23 26
24 29 40
25 27 34
